7713690148710239254501,8,1,2,08,14,1,2,01,12,1,2,08,7,1,2,02,7,1,2,07,3,1,2,08,7,1,2,01,15,1,2,06,3,1,2,015,6,1,2,08,3,1,2,015,3,1,2,015,6,1,2,08,11,1,2,06,15,1,2,01,13,1,2,03,9,1,2,015,10,1,2,010,10,1,2,01,2,1,2,02,12,1,2,01,9,1,2,013,4,1,2,03,8,1,2,09,3,1,2,05,4,1,2,04,10,1,2,01,5,1,2,09,13,1,2,06,14,1,2,05,7,1,2,012,4,1,2,011,5,1,2,02,8,1,2,08,11,1,2,09,5,1,2,07,11,1,2,010,4,1,2,05,14,1,2,06,3,1,2,011,15,1,2,011,5,1,2,08,13,1,2,06,15,1,2,07,6,1,2,011,13,1,2,02,15,1,2,011,1,1,2,014,5,1,2,08,8,1,2,0